Nb of jobs, Nb of Machines, Time seed, Machine seed, Upper bound, Lower bound
8,8,-1,-1,-1,-1
Times
9,34,22,50,16,30,37,4
76,94,89,75,13,97,93,53
27,90,9,36,21,85,93,21
60,26,90,71,28,41,94,21
58,88,87,2,62,48,36,67
93,81,65,82,49,54,20,76
94,94,25,7,34,71,10,88
66,82,71,83,19,43,69,9
Machines
5,8,7,2,4,3,1,6
7,5,3,1,2,4,6,8
2,4,5,8,7,6,1,3
8,4,6,5,7,3,1,2
2,3,5,6,8,7,1,4
1,5,3,4,6,7,2,8
7,5,4,8,6,3,1,2
4,6,2,1,5,8,7,3
